62 12 62 62 62 62 12 12 12 12 12 12 62 12 12 12 62 12 62 12 62 12 12 12 12 12 12 62 62 62 62 62 12 62 62 12 12 62 62 62 12 12 12 62 62 62 12 62 12 12 12 62 62 12 12 62 62 12 62 62 12 62 12 62 12 12 12 62 12 12 62 12 62 12 12 62 12 62 62 62 12 12 62 12 62 62 12 62 12 12 12 62 62 62 62 12 12 12 12 12 62 12 62 62 62 12 62 12 12 62 12 62 12 62 12 62 62 12 62 12 62 12 12 62 12 12 12 12 62 62 62 62 12 62 62 12 12 62 62 62 62 62 62 12 62 12 12 62 62 62 12 12 12 62 12 12 12 12 62 12 12 62 12 12 62 12 62 12 12 12 12 12 12 12 62 12 62 62 12 12 62 62 62 12 62 12 62 12 62 62 62 62 62 12 12 62 62 12 12 12 62 62 62 12 12 62 62 62 62 12 12 62 12 12 62 12 62 62 62 12 12 62 12 12 12 62 62 12 12 12 62 62 62 62 12 12 12 62 12 12 12 62 62 12 12 62 62 62 62 12 12 12 12 62 12 12 62 12 62 12 62 12 12 62 12 12 62 62 12 12 62 62 62 62 12 12 62 62 12 62 12 62 62 62 62 12 12 62 62 62 62 62 12 12 12 62 62 12 12 12 62 12 62 62 12 12 62 12 12 12 12 62 62 12 12 62 62 62 12 62 62 12 12 12 62 62 62 12 12 12 62 12 62 62 62 12 62 62 62 12 12 12 62 12 12 12 62 12 12 12 62 62 62 12 12 62 12 12 12 62 62 62 12 62 62 12 12 62 12 12 62 12 12 62 62 62 12 62 12 62 12 12 62 12 62 62 62 12 12 12 12 62 12 12 62 62 62 62 62 62 12 62 12 62 62 12 62 12 62 62 62 12 12 62 12 62 62 12 12 62 62 12 62 62 62 62 62 62 62 62 62 62 12 12 62 12 12 12 12 12 12 12 62 62 12 12 62 62 62 62 62 12 12 62 12 12 62 12 12 12 12 62 12 62 12 12 62 62 62 12 12 12 62 62 62 12 12 62 12 62 62 12 12 12 12 62 62 62 12 62 12 62 62 62 12 12 12 12 62 62 62 12 12 62 12 12 12 12 62 12 12 62 62 62 62 62 62 62 62 12 62 12 12 62 12 62 62 62 12 62 62 12 12 62 12 12 12 12 62 12 62 12 62 62 12 62 62 12 62 62 62 12 12 12 12 62 62 12 12 12 12 12 12 12 12 62 62 12 12 62 62 12 12 62 62 62 62 62 12 12 12 12 62 62 62 12 12 62 12 62 62 62 12 12 12 12 12 12 62 12 12 62 62 62 12 62 62 12 12 12 62 62 62 62 62 12 62 12 12 12 12 12 12 12 62 12 62 62 62 62 12 62 62 12 62 12 62 12 12 12 62 12 12 12 62 12 62 62 12 12 12 62 12 62 12 12 12 12 12 62 12 62 62 62 62 62 12 62 12 62 12 62 62 62 12 62 12 12 62 62 62 12 12 12 12 62 12 12 62 62 12 12 12 12 12 12 12 12 12 12 12 62 12 12 62 62 12 12 12 12 62 12 62 12 12 62 12 62 12 12 62 62 12 12 12 62 62 62 12 12 12 12 12 62 62 12 62 62 12 12 12 12 12 62 62 62 62 12 62 12 12 62 12 62 62 62 62 62 62 62 62 62 12 12 62 12 12 12 12 62 62 12 12 12 12 12 12 12 62 12 62 12 62 12 12 62 12 62 62 12 62 62 12 12 62 62 62 12 12 62 12 12 12 62 12 62 12 62 12 12 62 12 12 62 62 62 62 12 62 62 62 62 12 62 12 12 62 62 62 12 62 12 62 12 12 12 12 62 62 62 12 62 12 62 62 12 12 62 62 12 62 62 62 12 62 12 62 62 12 62 12 12 12 62 62 62 12 12 62 12 12 62 12 62 62 12 12 12 12 12 12 62 62 12 12 62 62 62 12 62 62 62 12 62 62 62 62 62 12 12 12 12 12 12 12 12 62 12 12 62 62 62 62 62 12 12 12 12 12 62 12 62 62 12 62 12 12 62 12 62 12 62 12 62 12 12 62 62 62 12 62 62 12 62 12 62 12 62 12 12 62 12 12 62 62 12 12 12 12 62 12 12 12 12 12 62 62 12 62 62 62 62 62 12 62 12 12 62 12 12 12 12 62 62 62 62 12 12 12 62 62 62 12 12 12 12 12 12 62 62 12 12 62 62 62 12 12 62 12 12 12 62 62 12 62 62 12 12 62 62 12 62 62 12 12 62 62 62 12 62 62 12 12 12 12 62 62 62 62 12 12 12 12 62 62 12 62 12 62 62 12 12 62 12 62 12 12 62 62 12 12 62 62 62 12 12 62 12 12 62 62 12 12 12 12 12 62 12 62 62 62 12 62 62 12 62 62 62 12 62 12 62 62 12 62 62 62 12 12 62 12 62 12 12 12 62 62 62 12 12 62 12 62 62 62 12 12 62 62 62 62 12 62 62 12 62 62 12 12 62 12 12 62 62 62 12 62 62 12 62 12 62 12 62 62 12 12 12 12 12 12 12 12 12 62 62 62 62 12 12 62 12 62 62 12 62 62 62 12 12 62 62 12 12 62 62 12 62 12 62 12 12 62 62 62 62 62 62 62 62 62 12 12 62 12 62 12 12 62 62 12 62 62 62 62 12 62 12 12 62 12 62 12 12 12 12 12 12 62 62 12 62 12 62 62 62 12 12 62 12 12 12 62 62 12 62 12 62 12 62 62 62 62 12 62 12 62 12 12 62 12 62 62 62 12 12 12 62 62 12 12 62 62 12 62 12 12 12 12 62 12 12 12 12 62 12 12 12 62 62 12 62 62 62 62 12 12 12 12 12 62 12 12 62 62 12 62 62 62 12 62 12 12 12 12 12 62 62 62 12 62 62 12 62 62 12 62 12 12 12 62 12 62 62 62 12 12 62 12 62 12 12 12 62 12 62 62 12 62 62 62 62 62 12 12 62 12 12 12 62 62 62 12 12 62 12 62 12 12 12 12 12 62 12 12 12 12 12 12 62 62 12 62 62 12 12 12 62 62 62 62 12 62 12 62 62 12 62 62 62 12 12 12 12 62 12 12 62 62 62 62 62 12 62 12 62 62 62 62 62 62 62 12 12 62 12 12 12 12 12 12 62 12 12 62 12 62 12 12 62 12 12 12 62 62 62 12 62 62 12 62 62 62 62 12 62 12 12 12 12 62 62 12 12 12 12 12 12 62 62 62 12 62 12 62 62 12 12 62 12 62 62 12 62 62 12 62 62 62 12 12 62 62 62 62 12 62 12 12 62 12 12 62 12 62 62 12 12 12 12 62 12 62 12 62 62 62 62 62 62 62 12 12 62 62 12 12 62 62 62 62 12 12 62 12 12 62 62 62 12 62 62 12 62 62 12 62 62 12 12 12 12 62 62 12 62 12 12 62 12 12 12 62 12 12 12 62 62 62 12 12 62 12 62 62 12 12 62 62 12 12 12 62 62 12 62 62 62 12 12 12 62 62 12 12 12 12 62 12 12 12 12 12 62 12 12 62 12 12 62 62 12 12 62 12 62 62 12 62 12 62 12 62 62 62 12 62 12 12 12 62 62 62 12 12 62 62 12 12 62 12 12 12 62 12 62 62 62 12 62 12 62 12 12 62 12 12 62 12 62 62 12 12 62 12 62 62 12 12 12 12 62 62 62 62 62 62 62 62 62 62 12 62 12 12 62 62 62 12 12 62 12 12 12 12 62 12 62 12 62 12 12 62 62 12 62 62 62 62 62 62 62 12 62 12 62 62 62 62 12 12 12 62 62 62 62 62 62 62 62 62 12 12 12 12 62 12 12 62 62 12 62 62 12 62 62 12 12 62 62 62 12 12 12 62 12 12 62 12 12 62 62 62 12 12 62 62 62 12 62 62 12 12 12 62 12 12 12 62 12 12 12 62 62 62 62 62 12 12 12 62 12 12 62 12 62 62 12 12 62 12 12 12 62 62 12 62 12 62 62 62 62 12 12 62 12 12 62 62 62 62 62 62 12 12 12 62 12 62 12 12 12 62 62 62 12 12 62 62 62 62 12 62 62 62 62 12 12 12 62 62 12 62 62 62 12 12 62 12 12 12 62 62 62 12 62 12 62 62 12 62 12 62 62 12 62 12 62 62 62 62 62 12 12 62 12 62 12 62 12 62 12 62 62 12 12 12 62 12 12 62 62 62 62 62 12 12 12 62 12 12 62 12 62 12 12 62 62 62 62 12 62 12 12 62 12 62 12 12 62 12 12 62 12 62 62 12 12 62 12 62 12 12 12 62 12 62 62 12 62 62 62 62 12 62 62 62 62 62 62 62 12 12 62 62 12 12 12 62 12 62 62 62 62 12 62 12 12 62 62 12 62 62 12 62 62 62 62 12 62 62 12 12 62 62 12 12 12 12 62 62 12 62 62 12 62 12 62 12 12 62 12 62 12 62 62 12 62 62 62 62 12 62 12 12 62 12 62 12 62 62 12 12 12 12 12 12 62 12 62 62 62 12 62 12 62 62 62 62 62 12 12 12 12 62 62 12 12 12 62 12 12 12 12 62 62 62 12 12 12 62 12 12 12 12 62 12 12 12 62 12 62 12 12 12 12 12 62 12 62 62 62 62 12 12 62 12 12 62 62 12 62 12 62 12 62 12 12 12 62 12 12 62 62 62 12 12 12 12 62 62 12 12 62 62 62 62 12 62 62 62 12 62 12 12 62 62 62 12 12 62 62 62 62 62 62 12 12 62 62 62 62 12 12 62 12 12 62 12 12 12 12 62 12 62 62 12 62 62 62 62 12 62 62 12 62 12 12 62 12 12 62 12 12 12 12 62 62 12 12 62 62 62 62 62 12 62 12 12 12 62 12 62 62 62 12 12 12 62 12 62 62 12 12 12 62 62 12 62 12 12 62 62 12 12 62 62 12 12 62 62 12 12 62 62 12 62 12 62 62 62 62 62 12 12 12 12 12 12 12 12 62 62 12 12 12 12 62 62 62 62 12 62 12 12 62 12 12 12 12 62 12 62 62 62 12 62 12 12 12 62 62 12 62 12 62 12 62 62 62 62 62 12 62 62 62 62 12 62 12 62 62 62 62 62 62 62 62 12 12 12 62 12 62 62 62 12 62 62 12 62 62 62 12 12 62 12 12 12 12 12 12 12 12 62 62 62 62 62 12 12 62 12 62 62 62 62 12 62 62 12 62 62 12 12 12 12 62 12 62 62 62 12 12 12 12 12 12 12 62 12 62 62 62 62 62 62 62 62 62 62 12 62 12 62 12 62 12 62 12 12 62 12 62 12 12 62 12 62 12 12 12 62 12 62 62 12 62 12 12 12 12 62 12 62 62 12 12 12 12 62 62 12 62 12 62 12 12 12 12 62 62 12 62 12 12 12 12 12 62 62 62 12 12 62 62 12 12 12 12 62 12 12 12 12 62 12 62 12 12 62 62 12 12 62 12 62 12 62 12 12 62 62 12 12 62 12 12 12 62 62 12 12 12 62 12 62 12 12 12 62 12 12 62 62 62 12 62 12 12 62 12 12 62 62 12 62 12 62 12 12 62 62 62 12 62 12 12 12 12 12 62 62 62 62 12 62 12 12 62 62 12 12 12 12 12 62 12 62 62 62 12 62 62 12 62 62 12 12 62 62 62 62 62 12 62 12 12 12 12 12 12 62 62 62 62 12 12 12 12 12 62 62 62 62 62 62 12 12 12 12 12 62 12 12 12 12 12 62 62 62 62 12 62 62 12 62 62 62 62 12 62 62 62 62 62 62 62 12 12 12 62 62 12 12 12 62 62 62 12 62 62 12 12 12 12 12 12 12 12 12 12 12 12 12 12 62 12 12 12 62 12 62 62 62 12 12 12 62 62 62 62 62 12 62 12 62 12 12 62 62 62 12 62 62 62 12 62 12 12 12 12 62 12 12 62 12 62 12 12 62 12 12 12 62 12 62 12 62 12 12 12 62 62 12 62 62 62 62 12 12 12 62 12 12 12 62 62 12 12 12 62 12 62 12 12 62 12 62 62 12 12 12 12 12 62 12 12 12 12 62 62 62 62 62 12 12 62 12 12 12 62 12 62 12 62 62 12 12 62 12 62 62 12 12 12 12 62 12 62 12 12 12 62 62 12 12 12 12 12 62 62 12 12 12 62 12 12 12 12 12 12 12 12 62 12 12 12 12 62 62 12 12 12 12 12 62 62 12 12 12 12 12 12 12 62 12 62 12 12 12 12 62 12 62 62 62 12 12 12 12 12 62 12 62 12 62 62 62 12 12 12 12 12 62 62 12 62 62 12 12 62 62 12 12 62 12 12 62 62 62 12 62 12 62 62 62 12 12 62 62 62 62 12 12 62 12 12 62 62 62 12 62 62 62 12 62 12 62 62 62 62 62 62 12 62 62 62 12 12 62 62 62 62 12 12 12 12 62 12 12 62 12 12 62 12 62 12 12 62 12 12 62 12 12 62 62 12 62 12 12 62 12 12 12 12 62 62 62 12 12 12 12 62 62 62 62 62 12 12 62 62 62 62 62 12 62 62 62 62 12 12 12 12 62 62 62 12 62 62 62 12 12 12 62 12 12 62 12 62 12 12 12 12 12 12 62 62 12 62 62 62 62 12 12 62 12 12 12 12 12 12 12 62 12 12 12 62 12 62 12 62 12 62 12 12 12 12 12 62 12 12 62 12 12 62 62 62 12 12 62 12 12 12 12 62 62 12 62 12 12 12 12 12 12 62 62 62 12 12 62 62 62 12 62 12 12 62 62 62 12 62 12 62 12 12 62 12 62 12 62 12 62 12 62 62 12 62 62 62 12 12 62 62 62 62 12 12 62 12 12 62 12 12 62 62 62 12 12 62 62 12 12 62 62 62 62 12 62 12 12 62 62 62 62 62 62 12 12 12 12 62 12 62 12 12 12 12 62 62 12 62 62 12 12 62 12 12 62 12 62 12 12 62 12 12 62 62 12 12 12 62 62 62 62 12 12 12 12 62 62 62 62 62 12 12 62 62 12 62 62 12 62 12 62 12 12 62 12 62 62 62 62 62 62 62 12 62 62 62 62 62 12 62 62 62 62 62 12 12 12 12 62 12 62 62 62 12 12 62 12 12 62 12 12 12 62 62 12 62 12 12 62 62 12 62 62 12 62 12 62 12 62 12 62 12 12 12 62 62 12 62 12 12 12 62 62 12 12 12 12 62 62 12 62 62 12 62 12 62 62 62 12 62 12 62 12 62 12 62 12 62 62 62 12 12 12 62 12 62 12 62 62 62 62 62 62 12 62 12 12 62 12 12 12 62 12 62 12 62 62 62 62 62 62 12 62 12 12 12 12 12 12 12 12 12 12 12 12 62 62 62 62 62 12 12 62 62 62 12 62 62 12 62 12 62 62 12 12 12 62 12 62 12 62 12 12 62 62 62 62 12 62 62 12 62 62 12 62 62 12 12 62 62 12 12 62 12 62 62 12 62 12 12 62 12 12 12 12 12 12 12 62 12 62 12 12 62 12 62 62 62 12 62 62 62 62 12 62 62 12 12 12 62 62 12 12 12 62 12 12 12 62 12 62 62 12 62 62 62 62 62 62 12 12 62 12 12 12 12 12 62 62 62 62 12 12 62 62 12 12 12 62 12 12 12 62 62 12 62 62 12 12 62 62 62 62 12 12 62 12 62 62 12 12 12 62 62 12 12 62 62 62 62 12 12 12 12 12 62 62 12 12 12 12 12 12 62 12 62 62 62 62 62 12 12 12 62 62 62 12 62 62 12 62 62 12 62 12 62 62 12 62 62 62 12 12 12 12 62 12 12 62 62 62 62 12 12 62 12 62 12 12 62 62 62 62 12 62 62 62 62 12 62 62 62 12 62 12 12 62 12 62 12 12 62 12 62 62 12 62 62 62 12 62 62 12 12 62 12 12 62 62 62 62 62 62 12 62 62 62 12 12 12 62 62 12 12 62 12 62 62 12 62 62 62 62 12 12 62 12 62 62 12 62 62 12 12 62 62 12 62 12 62 12 12 62 12 62 62 62 62 12 62 62 12 62 62 62 12 12 12 12 12 62 12 62 62 62 62 62 12 62 12 12 62 62 12 12 62 62 12 62 12 12 62 62 12 62 62 62 12 62 12 12 62 12 12 62 12 12 62 12 12 12 62 12 12 62 62 12 62 62 12 12 12 12 12 12 62 12 12 12 12 12 62 62 62 12 62 12 62 12 62 62 62 12 12 62 12 62 12 12 62 12 62 12 62 12 62 62 62 62 62 62 12 62 62 12 62 62 62 62 12 12 62 62 62 62 62 12 62 12 62 62 62 62 12 12 12 62 12 12 62 12 12 12 62 12 62 62 62 62 62 12 12 12 12 12 12 12 62 12 12 62 12 12 62 62 62 12 62 62 12 62 12 62 12 12 62 12 12 62 62 62 12 12 12 12 12 62 62 12 12 12 62 62 12 62 62 12 62 12 12 12 12 12 12 12 62 12 62 62 12 62 62 12 62 12 62 12 12 62 62 62 62 62 62 12 12 62 62 12 12 62 62 12 12 12 62 12 12 62 12 62 12 12 12 12 62 12 62 12 62 62 12 62 12 12 12 62 62 12 12 12 12 12 62 62 62 62 62 12 12 12 62 62 12 12 12 12 12 12 12 12 12 62 12 62 62 62 62 62 12 12 12 12 62 62 12 12 62 12 62 12 12 62 12 62 62 62 12 12 12 62 62 12 12 12 12 12 12 62 12 62 12 62 12 62 62 12 12 12 62 12 62 12 62 62 12 62 62 12 12 62 12 12 12 62 62 62 12 12 62 62 12 62 12 12 62 12 62 12 62 62 62 12 62 62 12 12 62 12 62 12 12 62 62 62 62 62 12 62 12 12 62 12 12 12 62 12 12 62 62 12 62 12 62 62 12 12 62 62 12 62 12 62 62 62 12 12 62 62 12 62 12 12 12 12 12 12 62 62 12 12 12 12 62 62 62 12 12 62 12 62 62 12 12 12 12 62 62 12 62 12 12 12 62 62 62 12 12 12 12 62 62 12 62 62 12 62 12 62 62 12 12 62 62 62 12 12 62 12 62 62 62 62 12 12 62 62 62 62 12 62 62 12 12 62 12 62 62 62 62 62 12 12 12 12 12 62 62 12 62 12 12 62 12 12 12 12 12 62 12 62 62 62 12 12 62 62 12 12 62 12 12 62 12 62 12 62 12 62 62 12 12 12 12 62 62 12 12 12 12 12 12 12 12 62 62 12 62 12 62 12 62 62 12 12 62 62 62 12 62 62 62 12 12 62 12 62 12 12 12 62 62 12 12 12 12 12 62 62 62 12 12 62 12 62 62 12 62 62 12 12 62 12 62 12 12 62 12 62 12 12 62 12 62 12 62 12 62 62 12 62 12 62 12 62 62 12 62 12 12 12 62 12 62 62 62 62 62 62 62 12 12 12 62 12 62 62 62 12 12 62 12 62 62 62 12 12 12 12 62 62 62 62 12 62 62 62 62 12 62 12 62 12 62 12 62 62 12 62 12 62 62 12 12 12 12 62 62 12 12 62 12 12 62 12 12 62 12 62 12 12 12 62 62 12 12 62 12 62 62 12 12 12 62 62 62 12 62 62 62 12 62 62 62 62 12 12 62 62 12 62 12 62 62 12 12 12 12 12 12 12 62 62 62 62 62 62 12 62 62 62 12 62 62 12 62 12 12 12 12 62 12 62 12 12 12 62 62 62 12 12 12 12 62 62 12 62 62 12 12 12 12 62 12 12 62 62 62 12 12 12 12 62 12 62 12 62 12 12 62 62 62 12 62 62 12 12 12 62 62 62 12 12 62 62 62 62 62 62 12 12 12 12 12 62 12 62 62 62 12 62 12 62 62 12 62 12 62 12 12 12 12 62 62 62 12 12 62 12 12 62 12 12 12 62 12 62 12 62 12 62 62 62 62 62 12 12 62 12 62 12 62 62 62 12 62 12 62 62 62 12 62 12 62 12 62 62 62 12 62 12 12 62 12 62 12 62 12 12 12 12 62 62 12 62 12 12 12 12 62 62 62 62 12 12 62 12 12 62 62 12 12 62 12 62 62 62 62 12 12 12 62 62 12 62 62 62 12 62 12 12 62 62 62 12 12 62 12 62 62 12 12 12 12 62 12 12 12 12 62 62 62 12 62 62 12 12 62 62 12 62 62 12 62 62 62 12 62 12 12 62 12 62 12 62 62 62 62 12 12 62 62 12 12 62 12 62 12 62 12 62 62 12 12 62 12 62 12 12 12 62 12 62 62 62 12 62 62 12 62 12 12 62 62 12 62 62 12 62 62 62 62 62 12 62 62 62 62 12 12 12 12 62 62 12 62 12 12 62 62 12 12 12 12 62 62 62 62 62 62 62 62 62 62 62 62 62 62 62 12 62 62 62 62 62 12 12 12 62 12 12 62 12 62 12 12 12 12 12 12 12 12 12 62 12 12 62 12 62 12 62 62 12 62 62 12 12 12 62 12 12 12 12 62 12 12 12 62 62 62 12 62 12 12 62 62 62 62 12 62 12 12 62 62 12 12 12 62 62 12 12 12 62 12 12 62 62 62 62 62 62 62 62 12 12 62 12 12 12 62 62 62 12 62 12 62 12 62 62 62 62 62 12 62 12 12 62 12 12 12 12 62 12 62 12 62 62 12 12 12 12 12 62 12 62 12 12 12 12 62 12 12 62 12 62 12 62 62 62 12 12 12 12 62 12 12 62 62 62 62 12 12 12 12 62 12 62 62 12 62 62 62 12 62 12 12 12 12 62 12 12 12 62 62 62 62 12 62 62 12 62 12 12 62 12 12 12 12 12 62 12 12 12 12 12 62 62 62 62 62 12 12 62 62 12 62 62 12 62 62 62 12 12 12 12 62 12 62 62 62 12 12 62 62 62 12 62 12 62 62 12 12 12 12 12 12 12 12 62 62 12 62 12 12 62 62 12 12 62 12 12 12 12 12 12 12 12 62 62 12 62 62 62 62 12 62 12 12 12 12 12 12 12 62 62 12 62 12 62 62 12 62 62 62 12 12 12 62 12 62 12 62 62 62 62 12 62 12 62 12 62 12 62 12 12 62 12 12 62 12 62 12 12 62 12 12 12 62 12 12 62 12 12 62 12 12 62 12 62 62 62 62 62 12 12 12 12 62 12 12 62 12 62 12 12 12 62 62 62 62 12 62 12 62 12 62 12 12 12 12 12 12 12 12 62 12 12 62 12 62 12 12 12 62 12 62 12 12 62 12 12 62 62 62 62 12 62 62 62 12 12 12 12 12 12 12 62 62 12 12 62 12 12 12 12 62 12 62 12 12 62 12 12 62 12 62 12 62 62 12 12 12 62 62 62 12 62 62 12 12 62 12 62 12 62 12 12 12 62 62 12 62 12 62 62 12 62 12 12 62 62 62 62 62 12 62 62 12 12 12 62 12 12 12 62 12 62 12 12 62 12 62 62 12 62 62 62 12 12 12 12 12 12 12 62 62 62 62 12 12 12 62 62 62 12 62 62 12 12 12 62 62 12 62 12 12 12 12 62 62 62 62 62 62 12 62 62 12 62 62 62 12 62 62 62 12 62 62 62 12 12 62 62 62 12 12 12 62 12 62 62 12 62 62 12 12 62 62 12 62 62 12 62 62 62 62 12 62 62 12 62 12 62 62 12 12 12 62 12 62 62 12 62 62 62 12 62 62 12 12 12 12 62 12 12 62 12 62 12 12 62 12 62 62 12 12 12 62 12 62 12 62 12 12 62 12 62 62 62 62 12 12 12 62 62 12 62 12 12 12 62 12 62 62 12 12 12 62 62 62 62 12 62 62 62 12 12 62 12 12 62 12 62 62 12 62 12 12 12 62 12 12 62 12 12 12 12 62 62 12 12 62 62 12 62 62 62 62 62 62 12 12 12 62 12 62 62 62 12 62 62 62 12 62 62 12 62 12 12 62 62 62 62 62 62 12 62 62 12 62 62 62 12 12 62 62 12 12 62 12 12 12 12 62 12 12 12 12 62 12 12 62 12 62 62 12 12 62 62 62 12 62 62 62 62 12 12 12 62 12 62 12 62 62 12 62 12 12 12 62 62 12 62 12 12 12 12 62 12 12 62 62 12 62 12 12 12 62 12 12 12 12 62 62 12 62 62 12 12 12 12 12 62 12 62 12 62 12 12 62 62 12 62 62 62 12 12 12 12 62 12 12 62 12 12 12 12 12 62 62 62 12 12 12 12 62 62 12 12 62 12 62 12 62 62 12 12 12 12 12 62 62 62 62 12 12 12 12 62 62 12 62 12 12 12 62 12 62 62 62 62 12 62 12 12 62 12 12 62 62 62 62 62 62 62 12 12 12 62 12 12 62 12 12 12 12 12 62 12 12 62 12 12 12 62 62 12 12 12 12 12 12 12 12 12 12 12 62 12 12 12 62 12 12 12 62 62 12 62 12 62 12 62 12 62 62 62 12 62 12 12 12 12 62 12 62 62 62 12 12 12 62 12 12 12 12 12 12 62 62 62 62 12 62 62 12 12 62 62 12 12 12 62 62 62 12 12 62 12 62 12 12 62 62 62 62 12 12 12 12 12 62 62 62 62 62 12 12 62 62 62 12 12 12 62 12 62 12 12 62 12 62 12 12 12 12 12 62 62 12 62 62 12 62 62 12 62 62 12 62 62 12 12 12 62 12 12 12 62 62 12 12 12 62 12 62 12 62 62 12 12 62 12 62 62 62 62 62 62 12 62 62 62 62 12 12 12 62 62 62 12 12 12 62 12 62 62 62 12 62 12 62 12 12 12 12 12 12 62 12 62 62 12 62 62 62 12 62 12 12 62 62 62 12 62 12 62 62 12 12 62 12 12 12 62 62 12 12 12 12 62 12 12 12 62 62 12 12 62 62 12 62 62 12 12 62 12 12 62 62 62 12 12 62 62 12 62 12 62 62 62 62 12 62 12 12 62 12 12 62 12 62 62 62 12 12 62 62 12 12 12 12 62 62 12 62 62 62 62 62 62 62 12 12 62 62 12 62 12 62 62 12 62 62 12 12 62 12 62 12 62 12 62 62 12 62 12 12 62 12 62 62 12 12 12 62 12 62 62 12 62 12 62 62 12 12 62 12 62 62 62 12 12 12 12 62 12 62 62 12 12 62 12 12 12 62 12 62 12 12 12 12 62 12 62 62 62 62 12 12 62 62 62 12 12 12 12 62 62 12 12 12 12 62 62 62 62 12 12 12 12 62 12 12 62 12 12 62 12 12 12 12 12 12 62 62 12 12 62 12 12 12 62 62 12 12 12 12 62 62 12 12 62 62 12 62 12 62 12 62 12 62 12 62 62 12 62 12 62 62 62 12 12 62 62 62 12 12 62 62 12 12 12 12 12 62 62 62 12 12 62 62 12 12 12 12 62 12 62 62 62 62 62 12 12 62 62 62 12 62 62 62 12 62 12 62 62 12 62 12 62 62 62 62 12 12 12 12 62 62 12 62 62 12 62 12 12 62 62 62 62 62 62 12 62 62 12 12 12 12 62 62 12 62 62 62 12 12 12 62 12 62 62 62 62 62 12 12 62 12 62 62 62 62 12 62 62 62 12 62 12 62 62 62 62 62 62 62 12 12 62 12 62 62 12 62 12 62 12 12 62 12 62 62 62 12 62 62 62 62 62 12 62 62 62 62 62 62 62 62 62 62 12 62 12 62 62 62 62 12 12 62 12 12 62 12 12 12 12 12 12 62 62 12 62 62 12 12 12 62 12 12 62 62 12 12 62 12 12 62 62 12 12 12 62 12 62 12 62 62 62 12 62 12 62 62 12 62 12 62 62 62 12 62 62 62 62 62 12 12 12 62 62 62 12 12 12 62 62 62 62 12 12 62 62 62 62 12 62 62 62 62 62 12 62 12 62 62 12 12 62 62 12 62 62 12 12 62 12 62 62 12 12 12 12 12 12 12 62 12 12 62 12 62 62 62 12 62 62 62 12 62 12 12 12 12 62 62 12 12 62 12 62 12 12 12 62 62 62 12 62 62 12 12 62 12 12 12 12 62 12 12 62 62 62 12 62 62 62 12 12 62 12 12 62 62 62 62 62 62 12 62 62 12 62 62 62 12 12 62 12 12 12 62 12 12 12 12 12 12 12 62 62 62 12 62 62 12 62 62 12 62 12 62 12 12 62 12 62 62 12 62 12 62 62 62 12 12 62 62 12 12 62 12 12 12 12 12 62 12 12 62 12 62 62 62 12 62 62 62 62 12 62 12 62 62 62 12 12 62 62 62 12 62 12 62 62 62 12 62 62 62 62 12 12 62 62 62 12 62 62 12 12 62 12 12 62 12 12 62 12 12 62 62 12 62 62 12 62 12 62 62 12 62 62 62 12 62 12 62 62 12 12 12 62 62 12 62 12 62 62 62 12 12 62 62 12 62 62 12 12 62 62 12 62 62 12 12 62 62 12 62 62 12 12 62 12 62 62 12 62 12 12 12 62 62 62 12 62 62 62 62 62 62 12 62 62 62 62 62 12 12 62 12 62 62 12 62 62 12 12 12 62 62 62 62 62 62 12 12 62 62 12 62 62 62 12 12 62 12 12 12 62 62 62 12 62 12 12 62 12 62 12 12 62 62 62 12 62 12 62 12 12 12 12 62 12 62 12 12 12 62 12 62 62 12 12 62 12 62 12 62 62 62 12 62 62 12 12 12 12 12 62 62 62 12 62 12 62 12 12 12 62 62 12 62 12 62 12 62 62 62 62 62 62 62 12 12 12 62 62 62 62 62 12 62 12 12 62 12 12 12 12 12 12 62 12 62 12 62 12 12 62 12 62 12 12 12 62 12 12 62 12 12 62 62 62 12 62 62 12 12 12 62 62 62 62 12 62 12 62 12 12 62 12 12 12 62 62 12 12 12 12 12 12 12 12 12 12 12 12 62 62 62 62 62 62 62 62 62 62 62 62 12 62 12 62 62 12 62 12 12 12 12 62 62 62 12 12 12 12 62 12 12 62 12 62 62 62 62 12 62 62 12 12 62 62 12 62 12 12 62 62 62 12 62 12 12 62 62 12 12 12 62 62 12 62 62 62 62 62 12 62 62 62 12 12 62 62 12 12 12 12 62 12 62 62 62 62 62 12 12 12 62 12 62 12 12 62 12 12 12 62 12 12 62 62 62 62 62 62 62 12 12 62 12 62 62 12 62 12 62 12 62 62 62 62 62 62 12 12 12 62 62 12 12 62 12 62 12 62 62 12 12 12 12 62 12 12 62 12 62 62 62 12 12 12 12 12 12 62 62 62 62 62 12 62 12 12 62 62 12 62 12 62 12 62 12 12 12 12 62 62 12 12 12 62 62 62 12 12 12 62 12 12 62 12 12 12 62 12 12 12 12 62 12 12 62 62 62 62 12 62 62 12 12 12 12 12 12 12 62 62 12 62 62 12 12 12 12 12 12 62 62 62 12 12 12 12 62 12 12 12 62 12 62 12 62 62 12 62 12 12 62 62 12 62 12 62 62 62 12 12 12 12 12 62 12 12 12 12 62 12 62 62 62 12 62 12 12 12 12 62 62 12 62 62 62 12 62 62 62 62 12 12 12 62 12 62 12 62 12 62 12 62 62 62 12 62 12 62 12 62 62 62 12 62 62 12 12 62 12 12 62 62 62 62 12 12 62 62 62 62 62 12 62 12 12 12 12 62 12 12 62 12 12 62 12 12 12 62 12 12 62 62 12 62 62 62 62 62 12 62 62 12 12 62 62 12 12 62 12 62 12 62 12 62 62 62 12 12 12 62 62 12 62 62 12 62 62 12 12 12 12 12 12 12 62 12 62 12 12 12 62 62 12 12 62 12 62 12 12 12 62 12 62 62 12 12 12 62 12 62 12 62 12 62 12 12 62 12 12 12 12 12 62 62 62 62 62 62 62 12 12 62 62 12 62 62 12 12 62 62 12 12 62 12 62 62 62 62 12 12 12 62 62 12 12 12 62 12 12 62 62 12 62 62 62 62 62 12 62 62 12 12 62 62 62 62 62 12 62 12 62 12 62 12 12 12 62 12 62 12 12 62 62 12 62 12 12 12 62 12 12 62 12 12 62 12 12 62 62 12 12 12 12 12 62 62 62 62 12 62 12 62 62 62 12 12 12 62 62 12 62 12 12 12 12 12 62 62 12 12 62 12 62 12 62 62 12 12 62 62 12 12 62 62 12 12 12 62 12 12 62 12 62 12 62 12 12 12 62 62 62 62 12 62 12 62 62 62 12 62 62 62 12 62 62 12 12 12 12 62 62 12 62 12 12 62 62 62 12 62 62 12 62 62 12 12 62 12 12 12 12 12 12 12 12 62 62 62 12 12 12 62 12 12 12 62 12 12 62 12 62 62 62 62 62 62 62 62 12 12 12 12 12 12 62 62 12 62 12 62 12 62 62 62 12 12 62 62 12 62 12 12 12 62 12 12 62 12 62 12 12 12 62 62 62 62 62 12 62 12 62 62 12 62 62 62 62 12 12 12 12 62 62 62 62 12 62 62 12 62 62 62 12 62 62 62 12 62 12 12 62 12 12 12 62 62 62 62 12 12 12 62 12 12 12 62 62 12 62 12 12 62 12 62 12 12 62 62 62 62 12 62 12 12 12 12 12 12 12 62 62 62 62 62 12 12 62 62 62 62 12 12 12 12 62 62 62 62 62 62 62 12 62 62 62 62 12 12 12 12 12 62 12 62 62 12 12 62 12 62 62 62 12 12 12 12 12 62 62 12 62 62 12 12 62 12 12 62 12 62 12 62 62 62 62 62 12 62 62 62 62 12 12 12 62 62 12 62 62 12 12 12 12 62 62 62 62 12 62 12 12 12 12 62 12 62 62 12 62 12 12 62 62 62 12 62 12 62 62 12 12 62 62 12 62 62 12 62 12 12 12 12 62 12 12 12 12 12 62 12 62 62 12 62 62 62 12 12 12 12 12 62 12 12 12 62 62 62 62 12 12 62 62 12 12 12 12 62 12 12 12 12 12 62 62 62 62 12 12 12 62 62 62 62 62 12 62 62 62 62 12 12 62 62 12 12 12 62 12 62 12 62 62 12 62 62 12 12 12 62 62 12 12 62 12 12 62 12 12 62 62 62 12 62 62 62 62 62 62 12 62 62 62 62 12 62 62 62 12 12 62 62 12 12 62 62 62 62 62 12 62 62 62 62 62 62 62 62 62 12 62 12 12 62 12 62 62 62 62 62 12 62 62 62 62 62 12 62 12 12 62 12 12 62 12 12 62 62 62 12 12 62 62 62 62 12 62 62 12 62 62 12 62 62 12 62 12 62 12 62 12 12 12 62 12 12 62 12 12 62 62 62 62 62 62 62 62 62 62 12 62 12 62 62 12 62 12 62 62 62 62 62 12 62 62 62 12 62 12 62 62 62 62 62 62 62 62 62 62 12 62 62 62 62 62 12 62 12 62 12 12 62 12 62 62 12 62 12 62 62 12 62 62 12 12 62 12 12 12 12 62 12 12 62 12 62 62 62 12 62 12 12 62 62 12 12 12 62 62 12 62 62 62 62 12 12 62 12 62 12 62 12 62 62 12 62 62 12 62 12 12 12 62 62 12 62 12 62 62 12 62 62 12 62 62 12 12 62 62 12 62 62 62 62 62 62 62 62 12 62 62 12 12 62 12 62 62 62 12 62 12 12 62 12 12 62 62 62 12 62 12 12 62 62 12 12 62 62 12 12 62 12 62 62 62 12 62 62 12 12 12 12 62 12 62 12 62 62 12 12 62 12 62 62 12 12 12 12 12 12 62 62 62 12 62 62 62 62 12 62 62 62 12 62 12 12 62 12 12 12 62 12 62 62 12 12 62 12 62 12 62 12 12 62 62 12 12 62 62 62 62 62 62 12 62 12 62 62 12 12 62 12 62 62 62 62 62 62 12 62 12 12 12 12 12 12 62 62 62 62 62 62 62 62 62 12 62 62 12 12 62 12 62 62 62 62 62 62 62 12 62 62 62 62 12 62 12 12 62 12 62 12 62 62 12 62 12 12 62 12 62 62 62 12 12 62 12 12 62 62 12 12 62 12 12 12 12 62 62 62 62 62 12 62 12 62 62 62 62 62 12 62 12 62 12 62 62 12 12 12 12 62 62 12 62 12 62 12 12 62 12 12 12 62 12 62 12 12 62 12 62 62 12 12 62 12 12 62 62 62 12 12 12 12 62 12 62 62 62 62 62 62 12 12 62 12 12 12 62 62 62 62 62 62 12 62 12 62 62 12 12 62 62 62 12 62 12 62 62 12 62 62 12 12 62 62 62 12 12 12 12 62 12 12 62 12 12 12 12 62 62 62 62 62 62 12 62 12 12 62 12 12 62 62 12 62 62 12 62 62 62 12 62 62 12 62 12 62 12 62 62 12 12 62 12 12 62 12 12 12 12 62 12 12 62 62 62 12 12 62 12 62 12 12 62 62 12 12 12 62 12 12 12 62 62 62 62 62 12 12 12 62 12 62 12 12 62 12 62 62 12 12 62 12 62 62 12 12 12 62 12 62 62 62 12 62 62 12 62 12 62 12 12 12 62 12 62 62 62 12 62 62 62 62 12 12 62 62 62 12 12 62 62 12 62 12 12 12 62 12 62 62 62 62 12 62 12 12 12 12 62 12 12 12 62 62 62 62 12 62 62 62 62 62 12 12 12 62 62 12 12 62 12 12 62 62 62 12 12 12 12 62 62 62 12 62 12 12 12 62 12 12 62 62 12 12 12 62 12 12 12 62 12 62 12 62 62 12 12 12 62 62 12 12 12 62 12 62 12 62 62 12 12 62 12 62 12 62 62 62 12 12 62 62 12 12 62 12 12 62 12 12 62 62 62 12 12 62 12 62 62 12 12 62 12 62 62 62 62 12 62 12 62 62 62 62 62 62 12 12 62 62 62 12 12 12 62 62 12 62 62 12 12 62 12 12 62 62 12 12 12 62 62 12 62 62 12 62 12 12 12 12 12 62 62 62 12 12 62 62 12 12 12 62 12 12 12 12 12 12 62 62 12 12 12 12 12 12 62 62 62 12 62 12 12 62 62 62 12 62 62 62 12 62 12 62 12 62 62 62 12 62 62 62 12 12 62 12 62 62 12 62 12 12 62 12 62 62 12 12 62 62 62 62 62 12 62 12 12 62 12 12 12 12 12 62 62 12 12 12 12 12 12 12 62 12 62 62 12 12 62 62 12 62 62 12 12 62 62 62 12 12 12 62 62 12 62 12 62 62 62 62 12 12 12 12 12 12 62 62 62 62 62 62 62 62 12 12 12 62 12 62 12 12 62 62 62 62 12 62 62 12 62 12 62 12 12 12 62 12 62 12 12 62 12 12 12 62 62 62 62 12 62 62 62 62 62 62 62 12 12 12 62 12 62 62 12 12 62 12 62 62 62 12 62 12 62 12 62 62 12 62 62 12 62 62 12 62 12 62 12 62 12 12 12 12 62 62 12 62 62 12 62 62 12 62 62 12 62 62 62 12 62 62 12 12 62 62 12 12 62 12 12 12 62 12 12 62 12 62 62 12 12 62 62 62 12 62 62 12 62 62 62 62 62 12 12 62 62 12 62 62 62 12 62 62 62 12 12 62 12 12 12 62 62 12 12 12 12 12 62 12 12 62 62 12 62 12 12 62 62 12 62 62 12 62 12 12 12 62 12 62 12 12 12 12 62 62 62 62 12 62 12 62 12 12 12 12 12 62 12 12 62 12 62 12 62 12 62 12 12 62 62 62 12 12 62 12 12 62 12 62 12 12 62 62 62 12 12 12 12 62 12 12 12 12 62 12 62 12 12 12 12 12 12 62 62 12 12 12 62 12 12 12 62 12 12 62 62 62 62 12 62 12 12 12 62 12 12 62 62 62 12 12 12 62 12 12 62 12 62 62 62 12 12 62 62 62 62 62 62 62 12 62 12 62 12 12 62 62 12 62 62 62 62 12 12 12 62 12 62 62 12 62 12 62 62 12 62 12 12 62 12 12 62 12 12 12 62 12 62 62 62 62 62 62 62 12 12 62 62 62 12 12 62 62 12 12 62 12 62 12 12 12 62 12 62 62 12 12 12 12 12 12 12 12 12 12 12 12 62 12 12 12 12 12 12 62 62 12 62 62 12 12 62 12 12 62 12 62 12 12 12 62 62 62 62 62 62 12 12 62 62 62 12 12 12 62 62 62 62 62 62 12 12 62 62 62 12 62 62 62 12 12 12 12 62 12 12 62 62 62 62 62 62 12 62 62 12 62 62 12 62 62 62 12 12 12 62 62 12 62 62 62 62 12 12 62 62 12 62 62 12 62 12 62 12 12 62 62 12 62 62 12 62 62 62 12 12 62 12 62 12 62 62 12 12 62 12 62 12 12 62 62 12 12 62 62 62 62 62 12 62 62 62 12 12 12 62 62 12 62 12 62 62 12 12 12 12 62 12 62 12 62 12 62 12 12 62 62 62 12 12 62 12 62 12 62 12 62 12 62 62 62 12 62 12 62 12 12 12 12 12 62 12 62 12 62 62 12 62 62 62 62 62 62 62 62 62 12 62 12 12 62 12 62 62 12 12 12 62 62 62 12 62 12 62 12 62 62 12 62 62 12 62 62 12 62 62 62 12 62 12 12 62 12 12 62 62 62 62 62 62 62 12 12 62 12 62 62 12 12 62 12 12 12 62 62 12 62 62 12 12 62 62 12 12 12 62 12 62 62 12 62 62 62 12 62 62 62 62 12 12 12 12 62 62 12 12 12 12 12 62 62 12 62 62 62 62 62 12 62 62 62 62 62 12 62 12 12 62 12 62 12 62 12 62 62 62 12 62 62 62 62 62 62 12 62 62 12 62 62 12 62 62 12 12 12 12 62 62 12 12 12 12 62 62 12 62 12 62 62 12 62 12 12 62 62 62 12 12 62 12 62 12 12 12 62 12 12 62 12 62 12 62 12 12 12 62 62 62 62 62 12 12 12 62 12 12 62 62 62 12 12 62 62 12 62 62 62 12 62 12 12 12 62 12 12 12 12 12 12 62 12 62 12 12 62 62 62 12 12 12 62 62 12 62 12 12 62 12 62 62 12 62 12 12 12 62 62 62 12 12 62 12 12 12 62 12 62 62 62 12 12 62 12 12 62 12 62 62 62 12 62 12 12 62 62 62 62 62 62 62 12 12 12 62 62 12 62 62 12 62 12 12 12 12 62 12 62 62 62 62 12 62 62 62 62 62 62 12 12 12 12 62 62 62 12 62 12 12 12 62 12 62 12 62 12 12 62 12 62 62 62 12 62 62 62 12 62 62 62 12 12 12 62 12 12 12 62 62 62 12 62 12 12 62 62 12 12 62 62 12 62 62 12 62 62 12 12 12 12 12 62 12 62 62 62 12 12 62 12 12 12 62 12 12 62 12 62 12 12 62 12 12 12 62 12 12 12 12 62 62 62 12 12 12 12 62 62 12 62 62 62 62 62 12 12 62 62 12 12 12 12 62 62 62 62 62 62 12 12 62 62 12 12 12 62 12 12 12 62 62 12 62 62 12 62 12 12 62 62 62 62 12 12 62 62 12 62 62 12 12 62 12 12 62 62 12 12 62 62 12 62 12 12 62 62 12 12 12 62 12 62 62 62 12 62 62 62 12 62 12 62 12 62 12 12 12 12 62 12 12 12 12 12 62 12 12 62 62 12 62 12 12 62 12 62 62 62 62 12 62 62 62 12 62 12 62 12 62 62 62 62 12 12 12 62 62 62 62 62 12 62 12 62 62 12 62 62 12 12 62 12 12 62 12 12 12 12 12 62 62 12 62 12 12 12 12 12 12 12 62 12 12 12 12 12 62 62 62 12 12 62 12 62 62 62 12 12 12 62 12 12 62 12 12 12 62 62 62 62 62 62 12 12 62 62 12 62 62 12 62 12 12 12 12 12 12 12 62 62 12 62 62 12 12 12 62 62 12 12 62 12 12 12 12 12 12 62 62 62 12 62 12 62 12 12 12 62 62 12 62 12 12 62 12 12 12 12 12 12 62 12 62 62 62 12 12 12 12 12 12 62 12 12 62 62 62 12 62 62 12 12 12 62 12 62 12 12 62 62 62 62 12 62 62 12 62 62 12 12 12 62 62 12 12 62 12 12 62 62 12 12 12 12 12 62 12 12 12 12 12 12 62 12 62 62 62 62 62 12 12 62 62 12 12 12 62 62 12 62 62 62 12 12 12 62 62 12 12 12 62 12 12 62 62 12 12 62 12 12 62 62 12 62 62 62 12 62 12 62 62 12 12 12 12 62 12 12 12 12 62 62 62 12 62 62 62 12 62 12 12 62 62 62 62 62 12 62 62 62 62 62 12 12 12 62 62 62 12 12 12 62 12 12 12 62 12 62 12 62 12 62 62 12 12 12 12 62 12 12 62 12 12 12 12 62 62 12 12 12 62 